; benchmark generated from python API
(set-info :status unknown)
(declare-sort value 0)
 (declare-sort quorum 0)
 (declare-sort node 0)
 (declare-fun member (node quorum) Bool)
(declare-fun en_noop () Bool)
(declare-fun |en_ext:send_request_vote| () Bool)
(declare-fun |en_ext:decide| () Bool)
(declare-fun |en_ext:send_vote| () Bool)
(declare-fun |en_ext:become_leader| () Bool)
(declare-fun |en_ext:recv_vote| () Bool)
(declare-fun decided (node value) Bool)
(declare-fun __decided (node value) Bool)
(declare-fun voted (node) Bool)
(declare-fun __voted (node) Bool)
(declare-fun leader (node) Bool)
(declare-fun __leader (node) Bool)
(declare-fun vote_msg (node node) Bool)
(declare-fun __vote_msg (node node) Bool)
(declare-fun vote_request_msg (node node) Bool)
(declare-fun __vote_request_msg (node node) Bool)
(declare-fun votes (node node) Bool)
(declare-fun __votes (node node) Bool)
(declare-fun |V__fml:dst| () node)
(declare-fun |V__fml:src| () node)
(declare-fun |V__fml:n| () node)
(declare-fun |V__fml:v| () value)
(declare-fun |V__fml:q| () quorum)
(declare-fun |V__fml:sender| () node)
(assert
 (let (($x1182 (forall ((Q1 quorum) (Q2 quorum) )(exists ((N node) )(let (($x1187 (member N Q1)))
 (and $x1187 (member N Q2))))
 )
 ))
 (let (($x940 (not en_noop)))
 (let (($x820 (not |en_ext:send_request_vote|)))
 (let (($x941 (or $x820 $x940)))
 (let (($x858 (not |en_ext:decide|)))
 (let (($x946 (or $x858 $x940)))
 (let (($x868 (or $x858 $x820)))
 (let (($x922 (not |en_ext:send_vote|)))
 (let (($x924 (or $x922 $x940)))
 (let (($x925 (or $x922 $x820)))
 (let (($x859 (or $x922 $x858)))
 (let (($x923 (not |en_ext:become_leader|)))
 (let (($x926 (or $x923 $x940)))
 (let (($x860 (or $x923 $x820)))
 (let (($x929 (or $x923 $x858)))
 (let (($x819 (or $x923 $x922)))
 (let (($x908 (not |en_ext:recv_vote|)))
 (let (($x912 (or $x908 $x940)))
 (let (($x853 (or $x908 $x820)))
 (let (($x905 (or $x908 $x858)))
 (let (($x907 (or $x908 $x922)))
 (let (($x913 (or $x908 $x923)))
 (let (($x854 (or |en_ext:recv_vote| |en_ext:become_leader| |en_ext:send_vote| |en_ext:decide| |en_ext:send_request_vote| en_noop)))
 (let (($x892 (forall ((|1:node| node) (|2:value| value) )(let (($x871 (decided |1:node| |2:value|)))
 (let (($x831 (__decided |1:node| |2:value|)))
 (= $x831 $x871))))
 ))
 (let (($x900 (forall ((|1:node| node) )(let (($x896 (voted |1:node|)))
 (let (($x897 (__voted |1:node|)))
 (= $x897 $x896))))
 ))
 (let (($x932 (forall ((|1:node| node) )(let (($x903 (leader |1:node|)))
 (let (($x904 (__leader |1:node|)))
 (= $x904 $x903))))
 ))
 (let (($x719 (forall ((|1:node| node) (|2:node| node) )(let (($x938 (vote_msg |1:node| |2:node|)))
 (let (($x890 (__vote_msg |1:node| |2:node|)))
 (= $x890 $x938))))
 ))
 (let (($x848 (forall ((|1:node| node) (|2:node| node) )(let (($x498 (vote_request_msg |1:node| |2:node|)))
 (let (($x838 (__vote_request_msg |1:node| |2:node|)))
 (= $x838 $x498))))
 ))
 (let (($x919 (forall ((|1:node| node) (|2:node| node) )(let (($x851 (votes |1:node| |2:node|)))
 (let (($x852 (__votes |1:node| |2:node|)))
 (= $x852 $x851))))
 ))
 (let (($x930 (and $x919 $x848 $x719 $x932 $x900 $x892)))
 (let (($x928 (=> en_noop $x930)))
 (let (($x1018 (forall ((V031 node) (V132 node) )(let (($x838 (__vote_request_msg V031 V132)))
 (let (($x1120 (= V132 |V__fml:dst|)))
 (let (($x1112 (= V031 |V__fml:src|)))
 (let (($x1113 (and $x1112 $x1120)))
 (let (($x1015 (or (not $x1113) true)))
 (let (($x498 (vote_request_msg V031 V132)))
 (= $x498 (and $x1015 (or $x1113 $x838))))))))))
 ))
 (let (($x1167 (and $x1018 $x919 $x719 $x932 $x900 $x892)))
 (let (($x985 (=> |en_ext:send_request_vote| $x1167)))
 (let (($x1156 (forall ((V value) )(let (($x1012 (__decided |V__fml:n| V)))
 (not $x1012)))
 ))
 (let (($x1044 (__leader |V__fml:n|)))
 (let (($x1023 (forall ((V1 value) (V025 node) )(let (($x1201 (__decided V025 V1)))
 (let (($x1202 (= V1 |V__fml:v|)))
 (let (($x1203 (= V025 |V__fml:n|)))
 (let (($x1013 (and $x1203 $x1202)))
 (let (($x1062 (or $x1013 $x1201)))
 (let (($x1021 (decided V025 V1)))
 (= $x1021 (and (or (not $x1013) true) $x1062)))))))))
 ))
 (let (($x1131 (and $x1023 $x1044 $x1156)))
 (let (($x1129 (and $x1131 $x919 $x848 $x719 $x932 $x900)))
 (let (($x1060 (=> |en_ext:decide| $x1129)))
 (let (($x1178 (forall ((X1 node) (X0 node) )(let (($x1118 (= X1 |V__fml:dst|)))
 (let (($x1119 (__vote_request_msg X0 X1)))
 (let (($x1050 (not $x1119)))
 (let (($x1133 (vote_request_msg X0 X1)))
 (or $x1133 $x1050 $x1118))))))
 ))
 (let (($x1140 (forall ((X1 node) (X0 node) )(let (($x1192 (= X0 |V__fml:src|)))
 (let (($x1119 (__vote_request_msg X0 X1)))
 (let (($x1050 (not $x1119)))
 (let (($x1133 (vote_request_msg X0 X1)))
 (or $x1133 $x1050 $x1192))))))
 ))
 (let (($x1071 (forall ((X1 node) (X0 node) )(let (($x1118 (= X1 |V__fml:dst|)))
 (let (($x1119 (__vote_request_msg X0 X1)))
 (let (($x1133 (vote_request_msg X0 X1)))
 (let (($x1171 (not $x1133)))
 (or $x1171 $x1119 $x1118))))))
 ))
 (let (($x1014 (forall ((X1 node) (X0 node) )(let (($x1192 (= X0 |V__fml:src|)))
 (let (($x1119 (__vote_request_msg X0 X1)))
 (let (($x1133 (vote_request_msg X0 X1)))
 (let (($x1171 (not $x1133)))
 (or $x1171 $x1119 $x1192))))))
 ))
 (let (($x1096 (__vote_request_msg |V__fml:dst| |V__fml:src|)))
 (let (($x1082 (__voted |V__fml:src|)))
 (let (($x1038 (not $x1082)))
 (let (($x1204 (forall ((V030 node) )(let (($x1213 (and (or (not (= V030 |V__fml:src|)) true) (or (= V030 |V__fml:src|) (__voted V030)))))
 (let (($x896 (voted V030)))
 (= $x896 $x1213))))
 ))
 (let (($x1152 (forall ((V028 node) (V129 node) )(let (($x890 (__vote_msg V028 V129)))
 (let (($x1120 (= V129 |V__fml:dst|)))
 (let (($x1112 (= V028 |V__fml:src|)))
 (let (($x1113 (and $x1112 $x1120)))
 (let (($x1015 (or (not $x1113) true)))
 (let (($x938 (vote_msg V028 V129)))
 (= $x938 (and $x1015 (or $x1113 $x890))))))))))
 ))
 (let (($x1166 (and $x1152 $x1204 $x1038 $x1096 $x1014 $x1071 $x1140 $x1178)))
 (let (($x1163 (and $x1166 $x919 $x932 $x892)))
 (let (($x1150 (=> |en_ext:send_vote| $x1163)))
 (let (($x1136 (forall ((N node) )(let (($x1144 (__votes |V__fml:n| N)))
 (let (($x1149 (member N |V__fml:q|)))
 (=> $x1149 $x1144))))
 ))
 (let (($x1066 (forall ((V024 node) )(let (($x1091 (and (or (not (= V024 |V__fml:n|)) true) (or (= V024 |V__fml:n|) (__leader V024)))))
 (let (($x903 (leader V024)))
 (= $x903 $x1091))))
 ))
 (let (($x1064 (and $x1066 $x1136)))
 (let (($x1059 (and $x1064 $x919 $x848 $x719 $x900 $x892)))
 (let (($x1055 (=> |en_ext:become_leader| $x1059)))
 (let (($x1068 (__vote_msg |V__fml:sender| |V__fml:n|)))
 (let (($x961 (forall ((V026 node) (V127 node) )(let (($x852 (__votes V026 V127)))
 (let (($x1027 (= V127 |V__fml:sender|)))
 (let (($x1004 (= V026 |V__fml:n|)))
 (let (($x996 (and $x1004 $x1027)))
 (let (($x851 (votes V026 V127)))
 (= $x851 (and (or (not $x996) true) (or $x996 $x852)))))))))
 ))
 (let (($x981 (and $x961 $x1068)))
 (let (($x980 (and $x981 $x848 $x719 $x932 $x900 $x892)))
 (let (($x977 (=> |en_ext:recv_vote| $x980)))
 (let (($x970 (and $x977 $x1055 $x1150 $x1060 $x985 $x928 $x854 $x913 $x907 $x905 $x853 $x912 $x819 $x929 $x860 $x926 $x859 $x925 $x924 $x868 $x946 $x941)))
 (let (($x8235 (forall ((N0 node) (N1 node) )(let (($x896 (voted N1)))
 (let (($x7971 (vote_msg N1 N0)))
 (=> $x7971 $x896))))
 ))
 (let (($x8240 (forall ((N0 node) (N1 node) (N2 node) )(let (($x8013 (= N0 N1)))
 (let (($x7971 (vote_msg N2 N1)))
 (let (($x8246 (and (vote_msg N2 N0) $x7971)))
 (=> $x8246 $x8013)))))
 ))
 (let (($x8249 (forall ((N0 node) (N1 node) )(let (($x7971 (vote_msg N1 N0)))
 (let (($x851 (votes N0 N1)))
 (=> $x851 $x7971))))
 ))
 (let (($x8258 (forall ((V1 value) (V2 value) (N1 node) (N2 node) )(let (($x8156 (= V1 V2)))
 (let (($x8256 (and (decided N1 V1) (decided N2 V2))))
 (=> $x8256 $x8156))))
 ))
 (let (($x8274 (exists ((Q0 quorum) )(forall ((N0 node) (Q2 quorum) (N1 node) (N2 node) )(let (($x8264 (votes N0 N2)))
 (let (($x8265 (votes N0 N1)))
 (let (($x8266 (or $x8265 $x8264)))
 (let (($x1187 (member N2 Q2)))
 (let (($x8267 (leader N0)))
 (let (($x8186 (or (= Q2 Q0) (member N1 Q0))))
 (let (($x8271 (and $x8186 $x8267 $x1187)))
 (=> $x8271 $x8266)))))))))
 )
 ))
 (let (($x8279 (forall ((N0 node) (V0 value) )(let (($x8277 (leader N0)))
 (let (($x871 (decided N0 V0)))
 (=> $x871 $x8277))))
 ))
 (let (($x8280 (and $x8279 $x8274 $x8258 $x8249 $x8240 $x8235)))
 (let (($x8281 (not $x8280)))
 (let (($x8023 (forall ((N0 node) (N1 node) )(let (($x897 (__voted N1)))
 (let (($x8053 (__vote_msg N1 N0)))
 (=> $x8053 $x897))))
 ))
 (let (($x8124 (forall ((N0 node) (N1 node) (N2 node) )(let (($x8013 (= N0 N1)))
 (let (($x8053 (__vote_msg N2 N1)))
 (let (($x7982 (and (__vote_msg N2 N0) $x8053)))
 (=> $x7982 $x8013)))))
 ))
 (let (($x8147 (forall ((N0 node) (N1 node) )(let (($x8053 (__vote_msg N1 N0)))
 (let (($x852 (__votes N0 N1)))
 (=> $x852 $x8053))))
 ))
 (let (($x8161 (forall ((V1 value) (V2 value) (N1 node) (N2 node) )(let (($x8156 (= V1 V2)))
 (let (($x8159 (and (__decided N1 V1) (__decided N2 V2))))
 (=> $x8159 $x8156))))
 ))
 (let (($x8190 (exists ((Q0 quorum) )(forall ((N0 node) (Q2 quorum) (N1 node) (N2 node) )(let (($x8173 (__votes N0 N2)))
 (let (($x8174 (__votes N0 N1)))
 (let (($x8175 (or $x8174 $x8173)))
 (let (($x1187 (member N2 Q2)))
 (let (($x8176 (__leader N0)))
 (let (($x8186 (or (= Q2 Q0) (member N1 Q0))))
 (let (($x8187 (and $x8186 $x8176 $x1187)))
 (=> $x8187 $x8175)))))))))
 )
 ))
 (let (($x8196 (forall ((N0 node) (V0 value) )(let (($x8194 (__leader N0)))
 (let (($x831 (__decided N0 V0)))
 (=> $x831 $x8194))))
 ))
 (let (($x8197 (and $x8196 $x8190 $x8161 $x8147 $x8124 $x8023)))
 (and $x8197 $x8281 $x970 $x1182))))))))))))))))))))))))))))))))))))))))))))))))))))))))))))))))))))))))))))))))
(check-sat)
